Cost: 1737
0-34-1-2-14-12-15-16-17-52-55-33-0
0-48-3-7-32-8-36-9-37-11-38-19-18-39-10-51-13-35-4-6-5-47-31-0
0-46-29-26-25-24-42-22-20-40-41-21-50-23-54-27-49-45-44-28-53-43-30-0
Cost: 1737
0-46-29-26-25-24-42-21-22-20-40-41-50-23-54-27-49-45-28-53-43-44-30-0
0-34-1-2-14-12-15-16-17-52-55-33-0
0-48-3-7-32-8-36-9-37-11-19-18-39-38-10-51-13-35-4-6-5-47-31-0
Cost: 1737
0-34-1-2-14-12-15-16-17-52-55-33-0
0-48-3-7-32-8-36-9-37-11-38-19-18-39-10-51-13-35-4-6-5-47-31-0
0-46-29-26-25-24-42-21-22-20-40-41-50-23-54-27-49-45-44-28-53-43-30-0
Cost: 1737
0-48-3-7-32-8-36-9-37-11-38-19-18-39-10-51-13-35-4-6-5-47-31-0
0-46-29-26-25-24-42-22-20-40-41-21-50-23-54-27-49-45-28-53-43-44-30-0
0-34-1-2-14-12-15-16-17-52-55-33-0
Cost: 1737
0-46-29-26-25-24-42-22-40-20-41-21-50-23-54-27-49-45-28-53-43-44-30-0
0-48-3-4-7-32-8-36-9-37-11-38-19-18-39-10-51-13-35-6-5-47-31-0
0-34-1-2-14-12-15-16-17-52-55-33-0
Cost: 1737
0-46-29-26-25-24-42-22-40-20-41-21-50-23-54-27-49-45-28-53-43-44-30-0
0-48-3-7-32-8-36-9-37-11-19-18-39-38-10-51-13-35-4-6-5-47-31-0
0-34-1-2-14-12-15-16-17-52-55-33-0
Cost: 1737
0-29-26-25-24-42-21-22-20-40-41-50-23-54-27-49-45-44-28-53-43-30-46-0
0-34-1-2-14-12-15-16-17-52-55-33-0
0-48-3-4-7-32-8-36-9-37-11-38-19-18-39-10-51-13-35-6-5-47-31-0
Cost: 1737
0-46-29-26-25-24-42-22-40-20-41-21-50-23-54-27-49-45-28-53-43-44-30-0
0-34-1-2-14-12-15-16-17-52-55-33-0
0-48-3-7-32-8-36-9-37-11-38-19-18-39-10-51-13-35-4-6-5-47-31-0
Cost: 1737
0-46-29-26-25-24-42-22-20-40-41-21-50-23-54-27-49-45-28-53-43-44-30-0
0-34-1-2-14-12-15-16-17-52-55-33-0
0-48-3-4-7-32-8-36-9-37-11-38-19-18-39-10-51-13-35-6-5-47-31-0
Cost: 1741
0-31-29-26-25-24-18-39-19-40-20-42-21-22-41-50-23-54-27-49-45-0
0-34-48-3-4-6-5-47-28-53-43-44-30-46-0
0-1-2-13-35-7-32-8-36-9-37-11-38-10-51-14-12-15-16-17-52-55-33-0
Cost: 1737
0-46-29-26-25-24-42-22-20-40-41-21-50-23-54-27-49-45-44-28-53-43-30-0
0-34-1-2-14-12-15-16-17-52-55-33-0
0-48-3-7-32-8-36-9-37-11-38-19-18-39-10-51-13-35-4-6-5-47-31-0
Cost: 1737
0-48-3-4-7-32-8-36-9-37-11-19-18-39-38-10-51-13-35-6-5-47-31-0
0-29-26-25-24-42-22-20-40-41-21-50-23-54-27-49-45-28-53-43-44-30-46-0
0-34-1-2-14-12-15-16-17-52-55-33-0
Cost: 1737
0-34-1-2-14-12-15-16-17-52-55-33-0
0-29-26-25-24-42-21-22-20-40-41-50-23-54-27-49-45-44-28-53-43-30-46-0
0-48-3-4-7-32-8-36-9-37-11-19-18-39-38-10-51-13-35-6-5-47-31-0
Cost: 1737
0-29-26-25-24-42-21-22-20-40-41-50-23-54-27-49-45-28-53-43-44-30-46-0
0-48-3-7-32-8-36-9-37-11-38-19-18-39-10-51-13-35-4-6-5-47-31-0
0-34-1-2-14-12-15-16-17-52-55-33-0
Cost: 1747
0-31-29-26-25-24-42-22-41-21-50-23-54-27-49-45-28-53-43-44-30-0
0-34-1-2-17-16-15-12-13-35-4-6-5-47-46-0
0-48-3-7-32-8-36-9-37-11-38-19-20-40-18-39-10-51-14-52-55-33-0
Cost: 1737
0-29-26-25-24-42-21-22-20-40-41-50-23-54-27-49-45-28-53-43-44-30-46-0
0-48-3-7-32-8-36-9-37-11-38-19-18-39-10-51-13-35-4-6-5-47-31-0
0-34-1-2-14-12-15-16-17-52-55-33-0
Cost: 1737
0-48-3-4-7-32-8-36-9-37-11-19-18-39-38-10-51-13-35-6-5-47-31-0
0-29-26-25-24-42-22-20-40-41-21-50-23-54-27-49-45-28-53-43-44-30-46-0
0-34-1-2-14-12-15-16-17-52-55-33-0
Cost: 1737
0-48-3-4-7-32-8-36-9-37-11-19-18-39-38-10-51-13-35-6-5-47-31-0
0-29-26-25-24-42-22-20-40-41-21-50-23-54-27-49-45-28-53-43-44-30-46-0
0-34-1-2-14-12-15-16-17-52-55-33-0
Cost: 1737
0-29-26-25-24-42-21-22-20-40-41-50-23-54-27-49-45-28-53-43-44-30-46-0
0-48-3-7-32-8-36-9-37-11-38-19-18-39-10-51-13-35-4-6-5-47-31-0
0-34-1-2-14-12-15-16-17-52-55-33-0
Cost: 1737
0-29-26-25-24-42-21-22-20-40-41-50-23-54-27-49-45-28-53-43-44-30-46-0
0-48-3-7-32-8-36-9-37-11-38-19-18-39-10-51-13-35-4-6-5-47-31-0
0-34-1-2-14-12-15-16-17-52-55-33-0
Cost: 1737
0-34-1-2-14-12-15-16-17-52-55-33-0
0-29-26-25-24-42-21-22-40-20-41-50-23-54-27-49-45-28-53-43-44-30-46-0
0-48-3-4-7-32-8-36-9-37-11-38-19-18-39-10-51-13-35-6-5-47-31-0
Cost: 1737
0-34-1-2-14-12-15-16-17-52-55-33-0
0-48-3-4-7-32-8-36-9-37-11-38-19-18-39-10-51-13-35-6-5-47-31-0
0-29-26-25-24-42-22-20-40-41-21-50-23-54-27-49-45-28-53-43-44-30-46-0
Cost: 1737
0-34-1-2-14-12-15-16-17-52-55-33-0
0-48-3-4-7-32-8-36-9-37-11-38-19-18-39-10-51-13-35-6-5-47-31-0
0-29-26-25-24-42-22-20-40-41-21-50-23-54-27-49-45-28-53-43-44-30-46-0
Cost: 1737
0-34-1-2-14-12-15-16-17-52-55-33-0
0-46-29-26-25-24-42-22-20-40-41-21-50-23-54-27-49-45-44-28-53-43-30-0
0-48-3-4-7-32-8-36-9-37-11-19-18-39-38-10-51-13-35-6-5-47-31-0
Cost: 1737
0-34-1-2-14-12-15-16-17-52-55-33-0
0-29-26-25-24-42-21-22-20-40-41-50-23-54-27-49-45-44-28-53-43-30-46-0
0-48-3-7-32-8-36-9-37-11-19-18-39-38-10-51-13-35-4-6-5-47-31-0
Cost: 1737
0-34-1-2-14-12-15-16-17-52-55-33-0
0-29-26-25-24-42-21-22-20-40-41-50-23-54-27-49-45-28-53-43-44-30-46-0
0-48-3-4-7-32-8-36-9-37-11-38-19-18-39-10-51-13-35-6-5-47-31-0
Cost: 1737
0-34-1-2-14-12-15-16-17-52-55-33-0
0-29-26-25-24-42-21-22-20-40-41-50-23-54-27-49-45-44-28-53-43-30-46-0
0-48-3-7-32-8-36-9-37-11-19-18-39-38-10-51-13-35-4-6-5-47-31-0
Cost: 1737
0-34-1-2-14-12-15-16-17-52-55-33-0
0-29-26-25-24-42-21-22-40-20-41-50-23-54-27-49-45-28-53-43-44-30-46-0
0-48-3-4-7-32-8-36-9-37-11-38-19-18-39-10-51-13-35-6-5-47-31-0
Cost: 1737
0-48-3-4-7-32-8-36-9-37-11-19-18-39-38-10-51-13-35-6-5-47-31-0
0-34-1-2-14-12-15-16-17-52-55-33-0
0-46-29-26-25-24-42-21-22-20-40-41-50-23-54-27-49-45-44-28-53-43-30-0
Cost: 1737
0-48-3-4-7-32-8-36-9-37-11-19-18-39-38-10-51-13-35-6-5-47-31-0
0-34-1-2-14-12-15-16-17-52-55-33-0
0-46-29-26-25-24-42-21-22-20-40-41-50-23-54-27-49-45-44-28-53-43-30-0
Cost: 1737
0-48-3-4-7-32-8-36-9-37-11-19-18-39-38-10-51-13-35-6-5-47-31-0
0-34-1-2-14-12-15-16-17-52-55-33-0
0-46-29-26-25-24-42-21-22-20-40-41-50-23-54-27-49-45-44-28-53-43-30-0
Cost: 1746
0-34-1-2-14-12-15-16-17-52-55-33-0
0-29-26-25-24-40-20-42-21-22-41-50-23-54-27-49-43-28-53-44-45-30-46-0
0-48-3-7-32-8-36-9-37-11-19-18-39-38-10-51-13-35-4-6-5-47-31-0
Cost: 1737
0-48-3-4-7-32-8-36-9-37-11-38-19-18-39-10-51-13-35-6-5-47-31-0
0-46-29-26-25-24-42-22-20-40-41-21-50-23-54-27-49-45-44-28-53-43-30-0
0-34-1-2-14-12-15-16-17-52-55-33-0
Cost: 1737
0-34-1-2-14-12-15-16-17-52-55-33-0
0-46-29-26-25-24-42-21-22-40-20-41-50-23-54-27-49-45-28-53-43-44-30-0
0-48-3-7-32-8-36-9-37-11-19-18-39-38-10-51-13-35-4-6-5-47-31-0
Cost: 1737
0-46-29-26-25-24-42-22-20-40-41-21-50-23-54-27-49-45-44-28-53-43-30-0
0-34-1-2-14-12-15-16-17-52-55-33-0
0-48-3-4-7-32-8-36-9-37-11-19-18-39-38-10-51-13-35-6-5-47-31-0
